
50
115149

6821 7171
917 4813
6179 2131
8420 6179
8346 483
5151 4491
6311 5568
3693 26
5281 6486
1079 882
6830 6498
6007 3412
2820 295
3786 9994
7362 642
4439 1563
9597 5058
9713 2452
8384 5305
911 4741
752 5766
2886 5437
3612 2943
7050 2115
8269 6946
5627 4290
6392 5206
5731 9160
341 85
5267 2774
2133 5635
4170 540
88 7540
6558 4014
9103 3164
687 1945
5801 9669
235 466
3519 8215
1593 7046
8606 8975
7281 7013
8966 3470
2180 5500
7189 9217
6995 409
5107 8500
9162 6735
6250 1969
2829 9668
